p cnf 1044
-17 -325
-18 -328
-19 -331
-20 -334
-21 -337
-22 -340
-23 -343
-24 -346
-25 -349
-26 -352
-27 -355
-28 -358
-29 -361
-30 -364
-31 -367
-32 -370
-33 371
-34 372
-35 373
-36 374
-37 375
-38 376
-39 377
-40 -18
-40 -19
18 19 40
-41 -20
-41 -21
20 21 41
-42 -22
-42 -23
22 23 42
-43 -24
-43 -25
24 25 43
-44 -26
-44 -27
26 27 44
-45 -28
-45 -29
28 29 45
-46 -30
-46 -31
30 31 46
-47 -32
-47 -33
32 33 47
-48 -34
-48 -35
34 35 48
-49 -36
-49 -37
36 37 49
-50 -38
-50 -39
38 39 50
-51 40
-51 41
-40 -41 51
-52 42
-52 43
-42 -43 52
-53 44
-53 45
-44 -45 53
-54 46
-54 47
-46 -47 54
-55 48
-55 49
-48 -49 55
-56 51
-56 52
-51 -52 56
-57 53
-57 54
-53 -54 57
-58 50
-58 55
-50 -55 58
-59 56
-59 57
-56 -57 59
-60 58
-60 59
-58 -59 60
-61 -17
-61 18
17 -18 61
-62 17
-62 -18
-17 18 62
-63 -61
-63 -62
61 62 63
-64 17
-64 18
-17 -18 64
-65 -17
-65 -63
17 63 65
-66 17
-66 63
-17 -63 66
-67 -65
-67 -66
65 66 67
-68 17
-68 -63
-17 63 68
-69 -64
-69 -68
64 68 69
-70 -18
-70 19
18 -19 70
-71 18
-71 -19
-18 19 71
-72 -70
-72 -71
70 71 72
-73 18
-73 19
-18 -19 73
-74 69
-74 -72
-69 72 74
-75 -69
-75 72
69 -72 75
-76 -74
-76 -75
74 75 76
-77 -69
-77 -72
69 72 77
-78 -73
-78 -77
73 77 78
-79 -19
-79 20
19 -20 79
-80 19
-80 -20
-19 20 80
-81 -79
-81 -80
79 80 81
-82 19
-82 20
-19 -20 82
-83 78
-83 -81
-78 81 83
-84 -78
-84 81
78 -81 84
-85 -83
-85 -84
83 84 85
-86 -78
-86 -81
78 81 86
-87 -82
-87 -86
82 86 87
-88 -20
-88 21
20 -21 88
-89 20
-89 -21
-20 21 89
-90 -88
-90 -89
88 89 90
-91 20
-91 21
-20 -21 91
-92 87
-92 -90
-87 90 92
-93 -87
-93 90
87 -90 93
-94 -92
-94 -93
92 93 94
-95 -87
-95 -90
87 90 95
-96 -91
-96 -95
91 95 96
-97 -21
-97 22
21 -22 97
-98 21
-98 -22
-21 22 98
-99 -97
-99 -98
97 98 99
-100 21
-100 22
-21 -22 100
-101 96
-101 -99
-96 99 101
-102 -96
-102 99
96 -99 102
-103 -101
-103 -102
101 102 103
-104 -96
-104 -99
96 99 104
-105 -100
-105 -104
100 104 105
-106 -22
-106 23
22 -23 106
-107 22
-107 -23
-22 23 107
-108 -106
-108 -107
106 107 108
-109 22
-109 23
-22 -23 109
-110 105
-110 -108
-105 108 110
-111 -105
-111 108
105 -108 111
-112 -110
-112 -111
110 111 112
-113 -105
-113 -108
105 108 113
-114 -109
-114 -113
109 113 114
-115 -23
-115 24
23 -24 115
-116 23
-116 -24
-23 24 116
-117 -115
-117 -116
115 116 117
-118 23
-118 24
-23 -24 118
-119 114
-119 -117
-114 117 119
-120 -114
-120 117
114 -117 120
-121 -119
-121 -120
119 120 121
-122 -114
-122 -117
114 117 122
-123 -118
-123 -122
118 122 123
-124 -24
-124 25
24 -25 124
-125 24
-125 -25
-24 25 125
-126 -124
-126 -125
124 125 126
-127 24
-127 25
-24 -25 127
-128 123
-128 -126
-123 126 128
-129 -123
-129 126
123 -126 129
-130 -128
-130 -129
128 129 130
-131 -123
-131 -126
123 126 131
-132 -127
-132 -131
127 131 132
-133 -25
-133 26
25 -26 133
-134 25
-134 -26
-25 26 134
-135 -133
-135 -134
133 134 135
-136 25
-136 26
-25 -26 136
-137 132
-137 -135
-132 135 137
-138 -132
-138 135
132 -135 138
-139 -137
-139 -138
137 138 139
-140 -132
-140 -135
132 135 140
-141 -136
-141 -140
136 140 141
-142 -26
-142 27
26 -27 142
-143 26
-143 -27
-26 27 143
-144 -142
-144 -143
142 143 144
-145 26
-145 27
-26 -27 145
-146 141
-146 -144
-141 144 146
-147 -141
-147 144
141 -144 147
-148 -146
-148 -147
146 147 148
-149 -141
-149 -144
141 144 149
-150 -145
-150 -149
145 149 150
-151 -27
-151 28
27 -28 151
-152 27
-152 -28
-27 28 152
-153 -151
-153 -152
151 152 153
-154 27
-154 28
-27 -28 154
-155 150
-155 -153
-150 153 155
-156 -150
-156 153
150 -153 156
-157 -155
-157 -156
155 156 157
-158 -150
-158 -153
150 153 158
-159 -154
-159 -158
154 158 159
-160 -28
-160 29
28 -29 160
-161 28
-161 -29
-28 29 161
-162 -160
-162 -161
160 161 162
-163 28
-163 29
-28 -29 163
-164 159
-164 -162
-159 162 164
-165 -159
-165 162
159 -162 165
-166 -164
-166 -165
164 165 166
-167 -159
-167 -162
159 162 167
-168 -163
-168 -167
163 167 168
-169 -29
-169 30
29 -30 169
-170 29
-170 -30
-29 30 170
-171 -169
-171 -170
169 170 171
-172 29
-172 30
-29 -30 172
-173 168
-173 -171
-168 171 173
-174 -168
-174 171
168 -171 174
-175 -173
-175 -174
173 174 175
-176 -168
-176 -171
168 171 176
-177 -172
-177 -176
172 176 177
-178 -30
-178 31
30 -31 178
-179 30
-179 -31
-30 31 179
-180 -178
-180 -179
178 179 180
-181 30
-181 31
-30 -31 181
-182 177
-182 -180
-177 180 182
-183 -177
-183 180
177 -180 183
-184 -182
-184 -183
182 183 184
-185 -177
-185 -180
177 180 185
-186 -181
-186 -185
181 185 186
-187 -31
-187 32
31 -32 187
-188 31
-188 -32
-31 32 188
-189 -187
-189 -188
187 188 189
-190 31
-190 32
-31 -32 190
-191 186
-191 -189
-186 189 191
-192 -186
-192 189
186 -189 192
-193 -191
-193 -192
191 192 193
-194 -186
-194 -189
186 189 194
-195 -190
-195 -194
190 194 195
-196 -32
-196 33
32 -33 196
-197 32
-197 -33
-32 33 197
-198 -196
-198 -197
196 197 198
-199 32
-199 33
-32 -33 199
-200 195
-200 -198
-195 198 200
-201 -195
-201 198
195 -198 201
-202 -200
-202 -201
200 201 202
-203 -195
-203 -198
195 198 203
-204 -199
-204 -203
199 203 204
-205 -33
-205 34
33 -34 205
-206 33
-206 -34
-33 34 206
-207 -205
-207 -206
205 206 207
-208 33
-208 34
-33 -34 208
-209 204
-209 -207
-204 207 209
-210 -204
-210 207
204 -207 210
-211 -209
-211 -210
209 210 211
-212 -204
-212 -207
204 207 212
-213 -208
-213 -212
208 212 213
-214 -34
-214 35
34 -35 214
-215 34
-215 -35
-34 35 215
-216 -214
-216 -215
214 215 216
-217 34
-217 35
-34 -35 217
-218 213
-218 -216
-213 216 218
-219 -213
-219 216
213 -216 219
-220 -218
-220 -219
218 219 220
-221 -213
-221 -216
213 216 221
-222 -217
-222 -221
217 221 222
-223 -35
-223 36
35 -36 223
-224 35
-224 -36
-35 36 224
-225 -223
-225 -224
223 224 225
-226 35
-226 36
-35 -36 226
-227 222
-227 -225
-222 225 227
-228 -222
-228 225
222 -225 228
-229 -227
-229 -228
227 228 229
-230 -222
-230 -225
222 225 230
-231 -226
-231 -230
226 230 231
-232 -36
-232 37
36 -37 232
-233 36
-233 -37
-36 37 233
-234 -232
-234 -233
232 233 234
-235 36
-235 37
-36 -37 235
-236 231
-236 -234
-231 234 236
-237 -231
-237 234
231 -234 237
-238 -236
-238 -237
236 237 238
-239 -231
-239 -234
231 234 239
-240 -235
-240 -239
235 239 240
-241 -37
-241 38
37 -38 241
-242 37
-242 -38
-37 38 242
-243 -241
-243 -242
241 242 243
-244 37
-244 38
-37 -38 244
-245 240
-245 -243
-240 243 245
-246 -240
-246 243
240 -243 246
-247 -245
-247 -246
245 246 247
-248 -240
-248 -243
240 243 248
-249 -244
-249 -248
244 248 249
-250 -38
-250 39
38 -39 250
-251 38
-251 -39
-38 39 251
-252 -250
-252 -251
250 251 252
-253 38
-253 39
-38 -39 253
-254 249
-254 -252
-249 252 254
-255 -249
-255 252
249 -252 255
-256 -254
-256 -255
254 255 256
-257 -249
-257 -252
249 252 257
-258 -253
-258 -257
253 257 258
-259 17
-259 -67
-17 67 259
-260 -17
-260 19
17 -19 260
-261 -259
-261 -260
259 260 261
-262 17
-262 -76
-17 76 262
-263 -17
-263 20
17 -20 263
-264 -262
-264 -263
262 263 264
-265 17
-265 -85
-17 85 265
-266 -17
-266 21
17 -21 266
-267 -265
-267 -266
265 266 267
-268 17
-268 -94
-17 94 268
-269 -17
-269 22
17 -22 269
-270 -268
-270 -269
268 269 270
-271 17
-271 -103
-17 103 271
-272 -17
-272 23
17 -23 272
-273 -271
-273 -272
271 272 273
-274 17
-274 -112
-17 112 274
-275 -17
-275 24
17 -24 275
-276 -274
-276 -275
274 275 276
-277 17
-277 -121
-17 121 277
-278 -17
-278 25
17 -25 278
-279 -277
-279 -278
277 278 279
-280 17
-280 -130
-17 130 280
-281 -17
-281 26
17 -26 281
-282 -280
-282 -281
280 281 282
-283 17
-283 -139
-17 139 283
-284 -17
-284 27
17 -27 284
-285 -283
-285 -284
283 284 285
-286 17
-286 -148
-17 148 286
-287 -17
-287 28
17 -28 287
-288 -286
-288 -287
286 287 288
-289 17
-289 -157
-17 157 289
-290 -17
-290 29
17 -29 290
-291 -289
-291 -290
289 290 291
-292 17
-292 -166
-17 166 292
-293 -17
-293 30
17 -30 293
-294 -292
-294 -293
292 293 294
-295 17
-295 -175
-17 175 295
-296 -17
-296 31
17 -31 296
-297 -295
-297 -296
295 296 297
-298 17
-298 -184
-17 184 298
-299 -17
-299 32
17 -32 299
-300 -298
-300 -299
298 299 300
-301 17
-301 -193
-17 193 301
-302 -17
-302 33
17 -33 302
-303 -301
-303 -302
301 302 303
-304 17
-304 -202
-17 202 304
-305 -17
-305 34
17 -34 305
-306 -304
-306 -305
304 305 306
-307 17
-307 -211
-17 211 307
-308 -17
-308 35
17 -35 308
-309 -307
-309 -308
307 308 309
-310 17
-310 -220
-17 220 310
-311 -17
-311 36
17 -36 311
-312 -310
-312 -311
310 311 312
-313 17
-313 -229
-17 229 313
-314 -17
-314 37
17 -37 314
-315 -313
-315 -314
313 314 315
-316 17
-316 -238
-17 238 316
-317 -17
-317 38
17 -38 317
-318 -316
-318 -317
316 317 318
-319 17
-319 -247
-17 247 319
-320 -17
-320 39
17 -39 320
-321 -319
-321 -320
319 320 321
-322 17
-322 -256
-17 256 322
-323 1
-323 60
-1 -60 323
-324 -60
-324 61
60 -61 324
-325 -323
-325 -324
323 324 325
-326 2
-326 60
-2 -60 326
-327 -60
-327 -261
60 261 327
-328 -326
-328 -327
326 327 328
-329 3
-329 60
-3 -60 329
-330 -60
-330 -264
60 264 330
-331 -329
-331 -330
329 330 331
-332 4
-332 60
-4 -60 332
-333 -60
-333 -267
60 267 333
-334 -332
-334 -333
332 333 334
-335 5
-335 60
-5 -60 335
-336 -60
-336 -270
60 270 336
-337 -335
-337 -336
335 336 337
-338 6
-338 60
-6 -60 338
-339 -60
-339 -273
60 273 339
-340 -338
-340 -339
338 339 340
-341 7
-341 60
-7 -60 341
-342 -60
-342 -276
60 276 342
-343 -341
-343 -342
341 342 343
-344 8
-344 60
-8 -60 344
-345 -60
-345 -279
60 279 345
-346 -344
-346 -345
344 345 346
-347 9
-347 60
-9 -60 347
-348 -60
-348 -282
60 282 348
-349 -347
-349 -348
347 348 349
-350 10
-350 60
-10 -60 350
-351 -60
-351 -285
60 285 351
-352 -350
-352 -351
350 351 352
-353 11
-353 60
-11 -60 353
-354 -60
-354 -288
60 288 354
-355 -353
-355 -354
353 354 355
-356 12
-356 60
-12 -60 356
-357 -60
-357 -291
60 291 357
-358 -356
-358 -357
356 357 358
-359 13
-359 60
-13 -60 359
-360 -60
-360 -294
60 294 360
-361 -359
-361 -360
359 360 361
-362 14
-362 60
-14 -60 362
-363 -60
-363 -297
60 297 363
-364 -362
-364 -363
362 363 364
-365 15
-365 60
-15 -60 365
-366 -60
-366 -300
60 300 366
-367 -365
-367 -366
365 366 367
-368 16
-368 60
-16 -60 368
-369 -60
-369 -303
60 303 369
-370 -368
-370 -369
368 369 370
-371 -60
-371 -306
60 306 371
-372 -60
-372 -309
60 309 372
-373 -60
-373 -312
60 312 373
-374 -60
-374 -315
60 315 374
-375 -60
-375 -318
60 318 375
-376 -60
-376 -321
60 321 376
-377 -60
-377 322
60 -322 377
-378 -39
-378 258
39 -258 378
-379 17
-379 -378
-17 378 379
379
